c
p cnf 21 56
17 -11 0
18 17 0
2 17 0
15 -4 0
1 16 0
-3 -18 0
18 14 0
13 -3 0
18 19 0
-13 17 0
14 10 0
-16 -1 0
-14 20 0
20 -13 0
15 11 0
15 -6 0
19 -9 0
-17 3 0
-19 -14 0
-10 -14 0
18 8 0
-11 17 0
12 15 0
8 -19 0
-10 8 0
-6 -11 0
-19 -17 0
-12 -9 0
-20 15 0
18 -5 0
6 5 0
-15 16 0
9 16 0
-19 18 0
-2 -16 0
-12 -13 0
5 -16 0
-17 -16 0
5 -8 0
-18 11 0
-9 2 0
13 -2 0
3 5 0
-21 17 0
18 4 0
-15 -12 0
20 19 0
-20 -1 0
1 -9 0
-12 -11 0
-10 15 0
18 3 0
16 -8 0
-12 17 0
10 4 0
-17 -4 0
